0 2200
1 2143
2 2092
3 2092
4 2023
5 2022
6 2022
7 1890
8 1890
9 1890
10 1890
11 1890
12 1832
13 1762
14 1762
15 1762
16 1712
17 1712
18 1712
19 1712
20 1699
21 1692
22 1692
23 1692
24 1625
25 1625
26 1602
27 1602
28 1602
29 1478
30 1478
31 1478
32 1478
33 1478
34 1478
35 1478
36 1470
37 1470
38 1444
39 1444
40 1377
41 1377
42 1377
43 1377
44 1377
45 1377
46 1356
47 1356
48 1356
49 1344
50 1344
51 1344
52 1344
53 1334
54 1334
55 1323
56 1321
57 1318
58 1312
59 1292
60 1292
61 1288
62 1288
63 1285
64 1285
65 1285
66 1282
67 1281
68 1263
69 1259
70 1259
71 1215
72 1215
73 1215
74 1215
75 1215
76 1215
77 1215
78 1215
79 1207
80 1205
81 1205
82 1205
83 1183
84 1183
85 1183
86 1183
87 1183
88 1183
89 1183
90 1183
91 1173
92 1173
93 1173
94 1158
95 1158
96 1158
97 1158
98 1158
99 1148
100 1148
101 1148
102 1148
103 1148
104 1148
105 1148
106 1143
107 1143
108 1143
109 1143
110 1143
111 1143
112 1143
113 1141
114 1141
115 1121
116 1121
117 1121
118 1121
119 1121
120 1121
121 1121
122 1121
123 1121
124 1121
125 1121
126 1121
127 1121
128 1102
129 1102
130 1102
131 1102
132 1102
133 1102
134 1102
135 1102
136 1102
137 1081
138 1081
139 1081
140 1079
141 1079
142 1079
143 1079
144 1079
145 1079
146 1079
147 1073
148 1073
149 1073
150 1073
151 1071
152 1071
153 1071
154 1071
155 1071
156 1071
157 1071
158 1071
159 1071
160 1071
161 1071
162 1071
163 1071
164 1071
165 1071
166 1071
167 1071
168 1071
169 1071
170 1071
171 1071
172 1071
173 1071
174 1071
175 1071
176 1071
177 1071
178 1071
179 1071
180 1071
181 1071
182 1071
183 1071
184 1071
185 1071
186 1071
187 1071
188 1071
189 1071
190 1071
191 1071
192 1071
193 1071
194 1071
195 1071
196 1071
197 1071
198 1071
199 1071
200 1071
201 1071
202 1071
203 1071
204 1071
205 1071
206 1071
207 1071
208 1071
209 1071
210 1071
211 1071
212 1071
213 1071
214 1071
215 1071
216 1071
217 1071
218 1071
219 1071
220 1071
221 1071
222 1071
223 1063
224 1063
225 1063
226 1063
227 1063
228 1063
229 1063
230 1063
231 1063
232 1063
233 1063
234 1063
235 1063
236 1063
237 1063
238 1063
239 1063
240 1063
241 1063
242 1063
243 1063
244 1063
245 1063
246 1063
247 1063
248 1063
249 1063
250 1063
251 1063
252 1063
253 1063
254 1063
255 1063
256 1063
257 1063
258 1063
259 1063
260 1063
261 1063
262 1063
263 1063
264 1063
265 1063
266 1063
267 1063
268 1063
269 1063
270 1063
271 1063
272 1063
273 1063
274 1063
275 1063
276 1063
277 1063
278 1063
279 1063
280 1063
281 1063
282 1063
283 1063
284 1063
285 1063
286 1063
287 1063
288 1063
289 1063
290 1063
291 1063
292 1063
293 1063
294 1063
295 1063
296 1063
297 1063
298 1063
299 1063
300 1063
301 1063
302 1063
303 1063
304 1063
305 1063
306 1063
307 1063
308 1063
309 1063
310 1063
311 1063
312 1063
313 1063
314 1063
315 1063
316 1063
317 1063
318 1063
319 1063
320 1063
321 1063
322 1063
323 1063
324 1063
325 1063
326 1063
327 1063
328 1063
329 1063
330 1063
331 1063
332 1063
333 1063
334 1063
335 1063
336 1063
337 1063
338 1063
339 1063
340 1063
341 1063
342 1063
343 1063
344 1063
345 1063
346 1063
347 1063
348 1063
349 1063
350 1063
351 1063
352 1063
353 1063
354 1063
355 1063
356 1063
357 1063
358 1063
359 1063
360 1063
361 1063
362 1063
363 1063
364 1063
365 1063
366 1063
367 1063
368 1063
369 1063
370 1063
371 1063
372 1063
373 1063
374 1063
375 1063
376 1063
377 1063
378 1063
379 1063
380 1063
381 1063
382 1063
383 1063
384 1063
385 1063
386 1063
387 1063
388 1063
389 1063
390 1063
391 1063
392 1063
393 1063
394 1063
395 1063
396 1063
397 1063
398 1063
399 1063
400 1063
401 1063
402 1063
403 1063
404 1063
405 1063
406 1063
407 1063
408 1063
409 1063
410 1063
411 1063
412 1063
413 1063
414 1063
415 1063
416 1063
417 1063
418 1063
419 1063
420 1063
421 1063
422 1063
423 1063
424 1063
425 1063
426 1063
427 1063
428 1063
429 1063
430 1063
431 1063
432 1063
433 1063
434 1063
435 1063
436 1063
437 1063
438 1063
439 1063
440 1063
441 1063
442 1063
443 1063
444 1063
445 1063
446 1063
447 1063
448 1063
449 1063
450 1063
451 1063
452 1063
453 1063
454 1063
455 1063
456 1063
457 1063
458 1063
459 1063
460 1063
461 1063
462 1063
463 1063
464 1063
465 1063
466 1063
467 1063
468 1063
469 1063
470 1063
471 1063
472 1063
473 1063
474 1063
475 1063
476 1063
477 1063
478 1063
479 1063
480 1063
481 1063
482 1063
483 1063
484 1063
485 1063
486 1063
487 1063
488 1063
489 1063
490 1063
491 1063
492 1063
493 1063
494 1063
495 1063
496 1063
497 1063
498 1063
499 1063
500 1063
501 1063
502 1063
503 1063
504 1063
505 1063
506 1063
507 1063
508 1063
509 1063
510 1063
511 1063
512 1063
513 1063
514 1063
515 1063
516 1063
517 1063
518 1063
519 1063
520 1063
521 1063
522 1063
523 1063
524 1063
525 1063
526 1063
527 1063
528 1063
529 1063
530 1063
531 1063
532 1063
533 1063
534 1063
535 1063
536 1063
537 1063
538 1063
539 1063
540 1063
541 1063
542 1063
543 1063
544 1063
545 1063
546 1063
547 1063
548 1063
549 1063
550 1063
551 1063
552 1063
553 1063
554 1063
555 1063
556 1063
557 1063
558 1063
559 1063
560 1063
561 1063
562 1063
563 1063
564 1063
565 1063
566 1063
567 1063
568 1063
569 1063
570 1063
571 1063
572 1063
573 1063
574 1063
575 1063
576 1063
577 1063
578 1063
579 1063
580 1063
581 1063
582 1063
583 1063
584 1063
585 1063
586 1063
587 1063
588 1063
589 1063
590 1063
591 1063
592 1063
593 1063
594 1063
595 1063
596 1063
597 1063
598 1063
599 1063
600 1063
601 1063
602 1063
603 1063
604 1063
605 1063
606 1063
607 1063
608 1063
609 1063
610 1063
611 1063
612 1063
613 1063
614 1063
615 1063
616 1063
617 1063
618 1063
619 1063
620 1063
621 1063
622 1063
623 1063
624 1063
625 1063
626 1063
627 1063
628 1063
629 1063
630 1063
631 1063
632 1063
633 1063
634 1063
635 1063
636 1063
637 1063
638 1063
639 1063
640 1063
641 1063
642 1063
643 1063
644 1063
645 1063
646 1063
647 1062
648 1062
649 1062
650 1062
651 1062
652 1062
653 1062
654 1062
655 1062
656 1053
657 1053
658 1053
659 1053
660 1053
661 1053
662 1053
663 1053
664 1052
665 1052
666 1052
667 1052
668 1052
669 1052
670 1052
671 1052
672 1052
673 1052
674 1052
675 1052
676 1052
677 1052
678 1052
679 1052
680 1052
681 1052
682 1052
683 1052
684 1052
685 1052
686 1052
687 1052
688 1052
689 1052
690 1052
691 1052
692 1052
693 1052
694 1052
695 1052
696 1052
697 1052
698 1052
699 1052
700 1052
701 1052
702 1052
703 1052
704 1052
705 1052
706 1052
707 1052
708 1052
709 1052
710 1052
711 1052
712 1052
713 1052
714 1052
715 1052
716 1052
717 1052
718 1052
719 1052
720 1052
721 1052
722 1052
723 1052
724 1052
725 1052
726 1052
727 1052
728 1052
729 1052
730 1052
731 1052
732 1052
733 1052
734 1052
735 1052
736 1052
737 1052
738 1052
739 1052
740 1052
741 1052
742 1052
743 1052
744 1052
745 1052
746 1052
747 1052
748 1052
749 1052
750 1052
751 1052
752 1052
753 1052
754 1052
755 1052
756 1052
757 1052
758 1052
759 1052
760 1052
761 1052
762 1052
763 1052
764 1052
765 1052
766 1052
767 1052
768 1052
769 1052
770 1052
771 1052
772 1052
773 1052
774 1052
775 1052
776 1052
777 1052
778 1052
779 1052
780 1052
781 1052
782 1052
783 1052
784 1052
785 1052
786 1052
787 1052
788 1052
789 1052
790 1052
791 1052
792 1052
793 1052
794 1052
795 1052
796 1052
797 1052
798 1052
799 1052
800 1052
801 1052
802 1052
803 1052
804 1052
805 1052
806 1052
807 1052
808 1052
809 1052
810 1052
811 1052
812 1052
813 1052
814 1052
815 1052
816 1052
817 1052
818 1052
819 1052
820 1052
821 1052
822 1052
823 1052
824 1052
825 1052
826 1052
827 1052
828 1052
829 1052
830 1052
831 1052
832 1052
833 1052
834 1052
835 1052
836 1052
837 1052
838 1052
839 1052
840 1052
841 1052
842 1052
843 1052
844 1052
845 1052
846 1052
847 1052
848 1052
849 1052
850 1052
851 1052
852 1052
853 1052
854 1052
855 1052
856 1052
857 1052
858 1052
859 1052
860 1052
861 1052
862 1052
863 1052
864 1052
865 1052
866 1052
867 1052
868 1052
869 1052
870 1052
871 1052
872 1052
873 1052
874 1052
875 1052
876 1052
877 1052
878 1052
879 1052
880 1052
881 1052
882 1052
883 1052
884 1052
885 1052
886 1052
887 1052
888 1052
889 1052
890 1052
891 1052
892 1052
893 1052
894 1052
895 1052
896 1052
897 1052
898 1052
899 1052
900 1052
901 1052
902 1052
903 1052
904 1052
905 1052
906 1052
907 1052
908 1052
909 1052
910 1052
911 1052
912 1052
913 1052
914 1052
915 1052
916 1052
917 1052
918 1052
919 1052
920 1052
921 1052
922 1052
923 1052
924 1052
925 1052
926 1052
927 1052
928 1052
929 1052
930 1052
931 1052
932 1052
933 1052
934 1052
935 1052
936 1052
937 1052
938 1052
939 1052
940 1052
941 1052
942 1052
943 1052
944 1052
945 1052
946 1052
947 1052
948 1052
949 1052
950 1052
951 1052
952 1052
953 1052
954 1052
955 1052
956 1052
957 1052
958 1052
959 1052
960 1052
961 1052
962 1052
963 1052
964 1052
965 1052
966 1052
967 1052
968 1052
969 1052
970 1052
971 1052
972 1052
973 1052
974 1052
975 1052
976 1052
977 1052
978 1052
979 1052
980 1052
981 1052
982 1052
983 1052
984 1052
985 1052
986 1052
987 1052
988 1052
989 1052
990 1052
991 1052
992 1052
993 1052
994 1052
995 1052
996 1052
997 1052
998 1052
999 1052
Best: [[26,28,25,15,7,17],
       [31,8,14,20,32,13],
       [21,6,30,11,16,23,10,5,24,4,27],
       [19,9,12,29,3,18,22,2]], fitness: 1052
